c A SAT instance generated from a 3-CNF formula that had 14 clauses and 7 variables
p cnf 7 14
-2 -7 4 0
-2 -4 6 0
3 -5 -1 0
2 -7 -5 0
-2 -3 1 0
2 -5 -6 0
5 7 -6 0
2 7 4 0
6 1 3 0
3 -2 -4 0
6 -7 4 0
-4 -3 -6 0
5 -3 -4 0
1 -7 2 0
